experiments/sat_smt/run/sat-r/results/kate_garry_craig.res
solved=true
solvingTime=741.890625
nActions=15