experiments/sat_smt/run/sat-r/results/kate_garry_craig.out
Timesteps: 1
s UNSATISFIABLE
real 0.15
user 0.01
sys 0.00
Timesteps: 2
s UNSATISFIABLE
real 0.18
user 0.04
sys 0.00
Timesteps: 3
s UNSATISFIABLE
real 0.14
user 0.07
sys 0.00
Timesteps: 4
s UNSATISFIABLE
real 0.34
user 0.13
sys 0.01
Timesteps: 5
s UNSATISFIABLE
real 0.47
user 0.35
sys 0.00
Timesteps: 6
s UNSATISFIABLE
real 0.66
user 0.51
sys 0.01
Timesteps: 7
s UNSATISFIABLE
real 1.82
user 1.60
sys 0.01
Timesteps: 8
s UNSATISFIABLE
real 4.48
user 4.24
sys 0.03
Timesteps: 9
s UNSATISFIABLE
real 13.69
user 13.05
sys 0.04
Timesteps: 10
s UNSATISFIABLE
real 22.00
user 21.25
sys 0.04
Timesteps: 11
s UNSATISFIABLE
real 29.51
user 28.65
sys 0.07
Timesteps: 12
s UNSATISFIABLE
real 44.08
user 43.09
sys 0.08
Timesteps: 13
s UNSATISFIABLE
real 105.78
user 104.37
sys 0.15
Timesteps: 14
s UNSATISFIABLE
real 275.99
user 273.87
sys 0.32
Timesteps: 15
s SATISFIABLE
real 247.70
user 246.13
sys 0.27
